32	5.0	10.0	32758272
32	10.0	15.0	31793208
32	15.0	45.0	31172882
32	20.0	65.0	30715210
32	25.0	90.0	30010594
32	30.0	105.0	29398384
32	35.0	115.0	28849826
32	40.0	130.0	28342621
32	46.0	140.0	27828195
32	50.0	145.0	27489603
32	55.0	150.0	27078088
32	60.0	160.0	26677329
32	65.0	165.0	26301619
32	70.0	175.0	25762418
32	73.0	175.0	25540968
32	75.0	180.0	25536167
32	80.0	185.0	25143941
32	85.0	195.0	25290220
